SECTION Graph
Nodes 30
Edges 67
E 1 2 2
E 1 11 1
E 2 3 2
E 2 12 2
E 3 4 2
E 3 13 2
E 4 5 2
E 4 14 2
E 5 6 2
E 5 15 2
E 6 7 2
E 6 16 2
E 7 8 2
E 7 17 2
E 8 9 2
E 8 18 2
E 9 10 2
E 9 19 2
E 10 20 2
E 11 12 2
E 11 21 1
E 12 13 2
E 12 22 2
E 13 14 2
E 13 23 2
E 14 15 2
E 14 24 2
E 15 16 2
E 15 25 2
E 16 17 2
E 16 26 2
E 17 18 2
E 17 27 2
E 18 19 2
E 18 28 2
E 19 20 2
E 19 29 2
E 20 30 1
E 21 22 1
E 22 23 1
E 23 24 1
E 24 25 1
E 25 26 1
E 26 27 1
E 27 28 1
E 28 29 1
E 29 30 1
END

SECTION Terminals
Terminals 3
T 1
T 20
T 25
END

EOF
